WARNING: for repeatability, setting FPU to use double precision
============================[ Problem Statistics ]=============================
|                                                                             |
|  Number of variables:           100                                         |
|  Number of clauses:             449                                         |
|  Parse time:                   0.00 s                                       |
|  Eliminated clauses:           0.00 Mb                                      |
|  Simplification time:          0.00 s                                       |
|                                                                             |
============================[ Search Statistics ]==============================
| Conflicts |          ORIGINAL         |          LEARNT          | Progress |
|           |    Vars  Clauses Literals |    Limit  Clauses Lit/Cl |          |
===============================================================================
|       100 |      97      442     1333 |      162      100      6 |  0.020 % |
|       250 |      97      442     1333 |      178      164      6 |  0.040 % |
===============================================================================
restarts              : 4
conflicts             : 473            (214415 /sec)
decisions             : 571            (0.00 % random) (258840 /sec)
propagations          : 11749          (5325929 /sec)
conflict literals     : 2597           (27.90 % deleted)
Memory used           : 13.00 MB
CPU time              : 0.002206 s

SATISFIABLE
